33D32945 STP File, STP Format Version 1.0

SECTION Comment
Name    "i080-221"
Creator "Cees Duin"
Remark  "Incidence graph"
END

SECTION Graph
Nodes 80
Edges 3160
E 1 2 294
E 1 3 294
E 1 4 304
E 1 5 303
E 1 6 302
E 1 7 289
E 1 8 299
E 1 9 304
E 1 10 292
E 1 11 299
E 1 12 300
E 1 13 301
E 1 14 305
E 1 15 293
E 1 16 300
E 1 17 190
E 1 18 204
E 1 19 198
E 1 20 200
E 1 21 193
E 1 22 210
E 1 23 197
E 1 24 206
E 1 25 195
E 1 26 205
E 1 27 199
E 1 28 192
E 1 29 197
E 1 30 204
E 1 31 194
E 1 32 189
E 1 33 197
E 1 34 197
E 1 35 202
E 1 36 204
E 1 37 203
E 1 38 197
E 1 39 199
E 1 40 201
E 1 41 204
E 1 42 212
E 1 43 202
E 1 44 194
E 1 45 191
E 1 46 198
E 1 47 209
E 1 48 204
E 1 49 198
E 1 50 194
E 1 51 194
E 1 52 202
E 1 53 199
E 1 54 193
E 1 55 190
E 1 56 199
E 1 57 192
E 1 58 203
E 1 59 197
E 1 60 197
E 1 61 194
E 1 62 199
E 1 63 206
E 1 64 196
E 1 65 198
E 1 66 203
E 1 67 196
E 1 68 190
E 1 69 199
E 1 70 204
E 1 71 205
E 1 72 195
E 1 73 193
E 1 74 200
E 1 75 199
E 1 76 199
E 1 77 198
E 1 78 202
E 1 79 195
E 1 80 200
E 2 3 294
E 2 4 295
E 2 5 306
E 2 6 300
E 2 7 305
E 2 8 295
E 2 9 312
E 2 10 300
E 2 11 301
E 2 12 303
E 2 13 296
E 2 14 297
E 2 15 306
E 2 16 302
E 2 17 199
E 2 18 199
E 2 19 202
E 2 20 194
E 2 21 191
E 2 22 202
E 2 23 209
E 2 24 190
E 2 25 197
E 2 26 203
E 2 27 199
E 2 28 198
E 2 29 199
E 2 30 198
E 2 31 196
E 2 32 203
E 2 33 203
E 2 34 203
E 2 35 197
E 2 36 191
E 2 37 197
E 2 38 194
E 2 39 202
E 2 40 201
E 2 41 197
E 2 42 203
E 2 43 205
E 2 44 197
E 2 45 191
E 2 46 197
E 2 47 197
E 2 48 195
E 2 49 201
E 2 50 202
E 2 51 197
E 2 52 200
E 2 53 197
E 2 54 197
E 2 55 198
E 2 56 203
E 2 57 198
E 2 58 203
E 2 59 198
E 2 60 202
E 2 61 202
E 2 62 206
E 2 63 200
E 2 64 209
E 2 65 200
E 2 66 199
E 2 67 205
E 2 68 195
E 2 69 200
E 2 70 203
E 2 71 191
E 2 72 192
E 2 73 197
E 2 74 204
E 2 75 198
E 2 76 204
E 2 77 199
E 2 78 200
E 2 79 197
E 2 80 205
E 3 4 304
E 3 5 303
E 3 6 302
E 3 7 308
E 3 8 293
E 3 9 305
E 3 10 305
E 3 11 306
E 3 12 296
E 3 13 294
E 3 14 302
E 3 15 299
E 3 16 300
E 3 17 201
E 3 18 199
E 3 19 194
E 3 20 199
E 3 21 202
E 3 22 197
E 3 23 204
E 3 24 195
E 3 25 201
E 3 26 207
E 3 27 200
E 3 28 205
E 3 29 198
E 3 30 207
E 3 31 200
E 3 32 201
E 3 33 203
E 3 34 194
E 3 35 208
E 3 36 192
E 3 37 202
E 3 38 201
E 3 39 197
E 3 40 199
E 3 41 196
E 3 42 202
E 3 43 197
E 3 44 199
E 3 45 212
E 3 46 189
E 3 47 201
E 3 48 207
E 3 49 198
E 3 50 202
E 3 51 206
E 3 52 199
E 3 53 202
E 3 54 203
E 3 55 200
E 3 56 209
E 3 57 199
E 3 58 198
E 3 59 196
E 3 60 198
E 3 61 205
E 3 62 187
E 3 63 200
E 3 64 205
E 3 65 192
E 3 66 201
E 3 67 196
E 3 68 204
E 3 69 201
E 3 70 200
E 3 71 200
E 3 72 208
E 3 73 196
E 3 74 205
E 3 75 193
E 3 76 206
E 3 77 200
E 3 78 194
E 3 79 202
E 3 80 198
E 4 5 303
E 4 6 290
E 4 7 298
E 4 8 305
E 4 9 297
E 4 10 301
E 4 11 305
E 4 12 295
E 4 13 299
E 4 14 294
E 4 15 296
E 4 16 300
E 4 17 199
E 4 18 203
E 4 19 196
E 4 20 198
E 4 21 193
E 4 22 206
E 4 23 200
E 4 24 191
E 4 25 203
E 4 26 198
E 4 27 196
E 4 28 198
E 4 29 198
E 4 30 205
E 4 31 198
E 4 32 198
E 4 33 192
E 4 34 211
E 4 35 196
E 4 36 204
E 4 37 202
E 4 38 194
E 4 39 199
E 4 40 204
E 4 41 198
E 4 42 202
E 4 43 202
E 4 44 204
E 4 45 211
E 4 46 204
E 4 47 195
E 4 48 207
E 4 49 190
E 4 50 205
E 4 51 205
E 4 52 196
E 4 53 206
E 4 54 198
E 4 55 195
E 4 56 201
E 4 57 203
E 4 58 195
E 4 59 195
E 4 60 186
E 4 61 199
E 4 62 203
E 4 63 200
E 4 64 199
E 4 65 197
E 4 66 196
E 4 67 198
E 4 68 202
E 4 69 206
E 4 70 198
E 4 71 195
E 4 72 200
E 4 73 198
E 4 74 206
E 4 75 205
E 4 76 195
E 4 77 190
E 4 78 201
E 4 79 207
E 4 80 202
E 5 6 297
E 5 7 298
E 5 8 306
E 5 9 303
E 5 10 298
E 5 11 298
E 5 12 301
E 5 13 306
E 5 14 297
E 5 15 295
E 5 16 294
E 5 17 201
E 5 18 210
E 5 19 204
E 5 20 203
E 5 21 209
E 5 22 194
E 5 23 198
E 5 24 201
E 5 25 192
E 5 26 199
E 5 27 205
E 5 28 207
E 5 29 210
E 5 30 199
E 5 31 196
E 5 32 204
E 5 33 201
E 5 34 204
E 5 35 192
E 5 36 202
E 5 37 197
E 5 38 200
E 5 39 201
E 5 40 197
E 5 41 187
E 5 42 200
E 5 43 193
E 5 44 195
E 5 45 199
E 5 46 197
E 5 47 198
E 5 48 211
E 5 49 202
E 5 50 196
E 5 51 195
E 5 52 207
E 5 53 196
E 5 54 194
E 5 55 200
E 5 56 203
E 5 57 201
E 5 58 200
E 5 59 201
E 5 60 197
E 5 61 191
E 5 62 200
E 5 63 195
E 5 64 199
E 5 65 200
E 5 66 197
E 5 67 195
E 5 68 193
E 5 69 195
E 5 70 204
E 5 71 193
E 5 72 213
E 5 73 195
E 5 74 198
E 5 75 202
E 5 76 205
E 5 77 199
E 5 78 198
E 5 79 201
E 5 80 196
E 6 7 301
E 6 8 295
E 6 9 306
E 6 10 301
E 6 11 294
E 6 12 302
E 6 13 306
E 6 14 307
E 6 15 297
E 6 16 295
E 6 17 206
E 6 18 194
E 6 19 204
E 6 20 197
E 6 21 205
E 6 22 199
E 6 23 196
E 6 24 204
E 6 25 197
E 6 26 207
E 6 27 196
E 6 28 202
E 6 29 201
E 6 30 194
E 6 31 196
E 6 32 202
E 6 33 200
E 6 34 196
E 6 35 196
E 6 36 204
E 6 37 204
E 6 38 204
E 6 39 197
E 6 40 191
E 6 41 196
E 6 42 192
E 6 43 204
E 6 44 199
E 6 45 199
E 6 46 196
E 6 47 206
E 6 48 199
E 6 49 198
E 6 50 203
E 6 51 196
E 6 52 199
E 6 53 198
E 6 54 198
E 6 55 204
E 6 56 206
E 6 57 197
E 6 58 204
E 6 59 205
E 6 60 198
E 6 61 182
E 6 62 202
E 6 63 193
E 6 64 197
E 6 65 190
E 6 66 196
E 6 67 203
E 6 68 198
E 6 69 192
E 6 70 197
E 6 71 194
E 6 72 194
E 6 73 196
E 6 74 195
E 6 75 208
E 6 76 199
E 6 77 205
E 6 78 197
E 6 79 195
E 6 80 199
E 7 8 304
E 7 9 301
E 7 10 291
E 7 11 297
E 7 12 298
E 7 13 305
E 7 14 291
E 7 15 305
E 7 16 299
E 7 17 201
E 7 18 194
E 7 19 194
E 7 20 206
E 7 21 204
E 7 22 201
E 7 23 199
E 7 24 199
E 7 25 209
E 7 26 198
E 7 27 199
E 7 28 199
E 7 29 208
E 7 30 199
E 7 31 208
E 7 32 193
E 7 33 200
E 7 34 194
E 7 35 205
E 7 36 204
E 7 37 207
E 7 38 205
E 7 39 204
E 7 40 203
E 7 41 206
E 7 42 200
E 7 43 201
E 7 44 205
E 7 45 198
E 7 46 207
E 7 47 196
E 7 48 202
E 7 49 207
E 7 50 202
E 7 51 203
E 7 52 196
E 7 53 204
E 7 54 204
E 7 55 195
E 7 56 204
E 7 57 200
E 7 58 195
E 7 59 196
E 7 60 190
E 7 61 211
E 7 62 202
E 7 63 193
E 7 64 206
E 7 65 195
E 7 66 202
E 7 67 201
E 7 68 193
E 7 69 204
E 7 70 198
E 7 71 205
E 7 72 204
E 7 73 193
E 7 74 194
E 7 75 206
E 7 76 204
E 7 77 198
E 7 78 199
E 7 79 194
E 7 80 198
E 8 9 301
E 8 10 310
E 8 11 300
E 8 12 303
E 8 13 301
E 8 14 298
E 8 15 297
E 8 16 304
E 8 17 199
E 8 18 206
E 8 19 204
E 8 20 195
E 8 21 201
E 8 22 200
E 8 23 198
E 8 24 197
E 8 25 194
E 8 26 201
E 8 27 197
E 8 28 201
E 8 29 206
E 8 30 203
E 8 31 209
E 8 32 198
E 8 33 200
E 8 34 194
E 8 35 202
E 8 36 191
E 8 37 199
E 8 38 202
E 8 39 195
E 8 40 192
E 8 41 201
E 8 42 192
E 8 43 206
E 8 44 197
E 8 45 201
E 8 46 206
E 8 47 198
E 8 48 203
E 8 49 202
E 8 50 194
E 8 51 202
E 8 52 202
E 8 53 196
E 8 54 198
E 8 55 206
E 8 56 202
E 8 57 201
E 8 58 194
E 8 59 213
E 8 60 202
E 8 61 209
E 8 62 201
E 8 63 204
E 8 64 195
E 8 65 194
E 8 66 194
E 8 67 197
E 8 68 198
E 8 69 201
E 8 70 203
E 8 71 199
E 8 72 203
E 8 73 205
E 8 74 199
E 8 75 200
E 8 76 194
E 8 77 197
E 8 78 192
E 8 79 199
E 8 80 199
E 9 10 298
E 9 11 297
E 9 12 304
E 9 13 298
E 9 14 303
E 9 15 298
E 9 16 301
E 9 17 192
E 9 18 194
E 9 19 195
E 9 20 198
E 9 21 207
E 9 22 209
E 9 23 193
E 9 24 204
E 9 25 198
E 9 26 198
E 9 27 195
E 9 28 205
E 9 29 196
E 9 30 208
E 9 31 200
E 9 32 204
E 9 33 204
E 9 34 201
E 9 35 189
E 9 36 197
E 9 37 203
E 9 38 198
E 9 39 189
E 9 40 193
E 9 41 199
E 9 42 198
E 9 43 202
E 9 44 205
E 9 45 195
E 9 46 196
E 9 47 202
E 9 48 200
E 9 49 200
E 9 50 201
E 9 51 201
E 9 52 208
E 9 53 200
E 9 54 204
E 9 55 212
E 9 56 202
E 9 57 192
E 9 58 204
E 9 59 206
E 9 60 190
E 9 61 191
E 9 62 203
E 9 63 201
E 9 64 203
E 9 65 205
E 9 66 202
E 9 67 194
E 9 68 200
E 9 69 205
E 9 70 203
E 9 71 207
E 9 72 195
E 9 73 197
E 9 74 201
E 9 75 206
E 9 76 198
E 9 77 202
E 9 78 207
E 9 79 194
E 9 80 196
E 10 11 294
E 10 12 304
E 10 13 303
E 10 14 293
E 10 15 297
E 10 16 297
E 10 17 206
E 10 18 197
E 10 19 198
E 10 20 196
E 10 21 203
E 10 22 185
E 10 23 198
E 10 24 195
E 10 25 196
E 10 26 196
E 10 27 195
E 10 28 198
E 10 29 204
E 10 30 192
E 10 31 205
E 10 32 200
E 10 33 198
E 10 34 205
E 10 35 195
E 10 36 195
E 10 37 203
E 10 38 202
E 10 39 200
E 10 40 203
E 10 41 200
E 10 42 196
E 10 43 204
E 10 44 203
E 10 45 203
E 10 46 203
E 10 47 203
E 10 48 201
E 10 49 203
E 10 50 201
E 10 51 199
E 10 52 201
E 10 53 197
E 10 54 187
E 10 55 197
E 10 56 213
E 10 57 193
E 10 58 199
E 10 59 190
E 10 60 202
E 10 61 200
E 10 62 205
E 10 63 194
E 10 64 192
E 10 65 203
E 10 66 193
E 10 67 195
E 10 68 202
E 10 69 199
E 10 70 209
E 10 71 202
E 10 72 192
E 10 73 195
E 10 74 205
E 10 75 200
E 10 76 188
E 10 77 204
E 10 78 207
E 10 79 199
E 10 80 196
E 11 12 302
E 11 13 302
E 11 14 299
E 11 15 298
E 11 16 292
E 11 17 199
E 11 18 200
E 11 19 201
E 11 20 199
E 11 21 196
E 11 22 206
E 11 23 198
E 11 24 193
E 11 25 189
E 11 26 203
E 11 27 203
E 11 28 198
E 11 29 205
E 11 30 200
E 11 31 204
E 11 32 200
E 11 33 196
E 11 34 190
E 11 35 199
E 11 36 207
E 11 37 203
E 11 38 209
E 11 39 191
E 11 40 196
E 11 41 190
E 11 42 193
E 11 43 201
E 11 44 203
E 11 45 198
E 11 46 201
E 11 47 204
E 11 48 197
E 11 49 208
E 11 50 209
E 11 51 200
E 11 52 198
E 11 53 195
E 11 54 201
E 11 55 204
E 11 56 195
E 11 57 210
E 11 58 200
E 11 59 198
E 11 60 201
E 11 61 205
E 11 62 203
E 11 63 201
E 11 64 201
E 11 65 210
E 11 66 200
E 11 67 199
E 11 68 203
E 11 69 202
E 11 70 199
E 11 71 202
E 11 72 192
E 11 73 203
E 11 74 205
E 11 75 201
E 11 76 201
E 11 77 195
E 11 78 194
E 11 79 206
E 11 80 197
E 12 13 293
E 12 14 297
E 12 15 299
E 12 16 298
E 12 17 196
E 12 18 195
E 12 19 206
E 12 20 205
E 12 21 206
E 12 22 204
E 12 23 208
E 12 24 207
E 12 25 195
E 12 26 206
E 12 27 189
E 12 28 198
E 12 29 188
E 12 30 196
E 12 31 197
E 12 32 196
E 12 33 197
E 12 34 201
E 12 35 205
E 12 36 208
E 12 37 196
E 12 38 207
E 12 39 207
E 12 40 209
E 12 41 194
E 12 42 201
E 12 43 197
E 12 44 194
E 12 45 199
E 12 46 198
E 12 47 208
E 12 48 203
E 12 49 204
E 12 50 199
E 12 51 192
E 12 52 198
E 12 53 194
E 12 54 200
E 12 55 196
E 12 56 208
E 12 57 196
E 12 58 204
E 12 59 203
E 12 60 197
E 12 61 208
E 12 62 203
E 12 63 200
E 12 64 199
E 12 65 212
E 12 66 202
E 12 67 196
E 12 68 195
E 12 69 200
E 12 70 205
E 12 71 202
E 12 72 197
E 12 73 203
E 12 74 202
E 12 75 205
E 12 76 198
E 12 77 196
E 12 78 205
E 12 79 208
E 12 80 191
E 13 14 293
E 13 15 301
E 13 16 300
E 13 17 196
E 13 18 195
E 13 19 204
E 13 20 199
E 13 21 194
E 13 22 202
E 13 23 210
E 13 24 193
E 13 25 201
E 13 26 198
E 13 27 196
E 13 28 195
E 13 29 201
E 13 30 205
E 13 31 201
E 13 32 195
E 13 33 202
E 13 34 202
E 13 35 198
E 13 36 209
E 13 37 193
E 13 38 202
E 13 39 199
E 13 40 198
E 13 41 196
E 13 42 195
E 13 43 196
E 13 44 201
E 13 45 205
E 13 46 201
E 13 47 191
E 13 48 202
E 13 49 205
E 13 50 199
E 13 51 201
E 13 52 206
E 13 53 192
E 13 54 202
E 13 55 199
E 13 56 194
E 13 57 199
E 13 58 198
E 13 59 198
E 13 60 204
E 13 61 205
E 13 62 198
E 13 63 200
E 13 64 199
E 13 65 197
E 13 66 196
E 13 67 202
E 13 68 198
E 13 69 196
E 13 70 207
E 13 71 204
E 13 72 190
E 13 73 201
E 13 74 197
E 13 75 191
E 13 76 190
E 13 77 202
E 13 78 195
E 13 79 194
E 13 80 203
E 14 15 297
E 14 16 304
E 14 17 199
E 14 18 191
E 14 19 195
E 14 20 202
E 14 21 200
E 14 22 199
E 14 23 197
E 14 24 197
E 14 25 204
E 14 26 194
E 14 27 203
E 14 28 195
E 14 29 202
E 14 30 197
E 14 31 197
E 14 32 205
E 14 33 208
E 14 34 198
E 14 35 192
E 14 36 208
E 14 37 189
E 14 38 200
E 14 39 196
E 14 40 199
E 14 41 200
E 14 42 198
E 14 43 199
E 14 44 196
E 14 45 202
E 14 46 196
E 14 47 202
E 14 48 198
E 14 49 195
E 14 50 199
E 14 51 205
E 14 52 195
E 14 53 196
E 14 54 198
E 14 55 202
E 14 56 203
E 14 57 197
E 14 58 200
E 14 59 197
E 14 60 205
E 14 61 197
E 14 62 202
E 14 63 204
E 14 64 198
E 14 65 204
E 14 66 205
E 14 67 205
E 14 68 192
E 14 69 212
E 14 70 202
E 14 71 199
E 14 72 198
E 14 73 195
E 14 74 204
E 14 75 206
E 14 76 197
E 14 77 200
E 14 78 201
E 14 79 204
E 14 80 202
E 15 16 288
E 15 17 208
E 15 18 191
E 15 19 209
E 15 20 198
E 15 21 202
E 15 22 196
E 15 23 199
E 15 24 198
E 15 25 200
E 15 26 202
E 15 27 202
E 15 28 192
E 15 29 200
E 15 30 208
E 15 31 195
E 15 32 199
E 15 33 200
E 15 34 202
E 15 35 201
E 15 36 205
E 15 37 210
E 15 38 198
E 15 39 202
E 15 40 199
E 15 41 200
E 15 42 206
E 15 43 201
E 15 44 197
E 15 45 196
E 15 46 195
E 15 47 208
E 15 48 194
E 15 49 193
E 15 50 192
E 15 51 206
E 15 52 198
E 15 53 201
E 15 54 198
E 15 55 207
E 15 56 197
E 15 57 192
E 15 58 197
E 15 59 192
E 15 60 187
E 15 61 204
E 15 62 198
E 15 63 199
E 15 64 200
E 15 65 205
E 15 66 196
E 15 67 204
E 15 68 196
E 15 69 198
E 15 70 197
E 15 71 191
E 15 72 205
E 15 73 202
E 15 74 199
E 15 75 200
E 15 76 197
E 15 77 194
E 15 78 209
E 15 79 190
E 15 80 194
E 16 17 198
E 16 18 195
E 16 19 202
E 16 20 199
E 16 21 199
E 16 22 202
E 16 23 201
E 16 24 198
E 16 25 198
E 16 26 197
E 16 27 205
E 16 28 202
E 16 29 193
E 16 30 198
E 16 31 203
E 16 32 197
E 16 33 203
E 16 34 191
E 16 35 197
E 16 36 197
E 16 37 202
E 16 38 206
E 16 39 201
E 16 40 199
E 16 41 208
E 16 42 203
E 16 43 197
E 16 44 197
E 16 45 199
E 16 46 211
E 16 47 207
E 16 48 195
E 16 49 185
E 16 50 200
E 16 51 192
E 16 52 196
E 16 53 202
E 16 54 201
E 16 55 197
E 16 56 199
E 16 57 201
E 16 58 206
E 16 59 203
E 16 60 202
E 16 61 195
E 16 62 189
E 16 63 186
E 16 64 197
E 16 65 200
E 16 66 195
E 16 67 198
E 16 68 201
E 16 69 200
E 16 70 203
E 16 71 189
E 16 72 204
E 16 73 199
E 16 74 197
E 16 75 206
E 16 76 197
E 16 77 200
E 16 78 195
E 16 79 199
E 16 80 202
E 17 18 94
E 17 19 95
E 17 20 108
E 17 21 100
E 17 22 95
E 17 23 107
E 17 24 99
E 17 25 104
E 17 26 98
E 17 27 92
E 17 28 107
E 17 29 95
E 17 30 104
E 17 31 97
E 17 32 105
E 17 33 96
E 17 34 110
E 17 35 101
E 17 36 96
E 17 37 101
E 17 38 88
E 17 39 97
E 17 40 93
E 17 41 103
E 17 42 105
E 17 43 99
E 17 44 99
E 17 45 108
E 17 46 104
E 17 47 106
E 17 48 98
E 17 49 102
E 17 50 107
E 17 51 107
E 17 52 101
E 17 53 103
E 17 54 94
E 17 55 100
E 17 56 102
E 17 57 105
E 17 58 89
E 17 59 102
E 17 60 94
E 17 61 91
E 17 62 107
E 17 63 93
E 17 64 100
E 17 65 99
E 17 66 97
E 17 67 99
E 17 68 101
E 17 69 106
E 17 70 103
E 17 71 99
E 17 72 95
E 17 73 98
E 17 74 101
E 17 75 103
E 17 76 97
E 17 77 95
E 17 78 97
E 17 79 110
E 17 80 94
E 18 19 97
E 18 20 100
E 18 21 97
E 18 22 105
E 18 23 114
E 18 24 101
E 18 25 101
E 18 26 108
E 18 27 104
E 18 28 100
E 18 29 104
E 18 30 96
E 18 31 105
E 18 32 102
E 18 33 102
E 18 34 104
E 18 35 102
E 18 36 96
E 18 37 101
E 18 38 100
E 18 39 96
E 18 40 102
E 18 41 102
E 18 42 103
E 18 43 94
E 18 44 99
E 18 45 111
E 18 46 102
E 18 47 95
E 18 48 108
E 18 49 100
E 18 50 105
E 18 51 99
E 18 52 99
E 18 53 101
E 18 54 101
E 18 55 99
E 18 56 92
E 18 57 104
E 18 58 105
E 18 59 99
E 18 60 99
E 18 61 99
E 18 62 94
E 18 63 92
E 18 64 96
E 18 65 106
E 18 66 102
E 18 67 88
E 18 68 107
E 18 69 96
E 18 70 99
E 18 71 100
E 18 72 96
E 18 73 100
E 18 74 99
E 18 75 105
E 18 76 96
E 18 77 96
E 18 78 100
E 18 79 103
E 18 80 99
E 19 20 96
E 19 21 98
E 19 22 105
E 19 23 103
E 19 24 99
E 19 25 108
E 19 26 94
E 19 27 95
E 19 28 95
E 19 29 100
E 19 30 101
E 19 31 99
E 19 32 93
E 19 33 94
E 19 34 109
E 19 35 98
E 19 36 102
E 19 37 96
E 19 38 108
E 19 39 100
E 19 40 97
E 19 41 100
E 19 42 111
E 19 43 102
E 19 44 93
E 19 45 101
E 19 46 106
E 19 47 102
E 19 48 98
E 19 49 100
E 19 50 101
E 19 51 98
E 19 52 105
E 19 53 104
E 19 54 95
E 19 55 97
E 19 56 108
E 19 57 98
E 19 58 102
E 19 59 98
E 19 60 94
E 19 61 101
E 19 62 102
E 19 63 95
E 19 64 98
E 19 65 96
E 19 66 99
E 19 67 100
E 19 68 98
E 19 69 94
E 19 70 102
E 19 71 94
E 19 72 100
E 19 73 100
E 19 74 100
E 19 75 92
E 19 76 90
E 19 77 96
E 19 78 103
E 19 79 94
E 19 80 93
E 20 21 93
E 20 22 97
E 20 23 93
E 20 24 101
E 20 25 96
E 20 26 102
E 20 27 100
E 20 28 98
E 20 29 105
E 20 30 85
E 20 31 102
E 20 32 94
E 20 33 97
E 20 34 104
E 20 35 101
E 20 36 101
E 20 37 99
E 20 38 106
E 20 39 105
E 20 40 106
E 20 41 102
E 20 42 100
E 20 43 99
E 20 44 97
E 20 45 103
E 20 46 108
E 20 47 98
E 20 48 96
E 20 49 102
E 20 50 100
E 20 51 90
E 20 52 99
E 20 53 92
E 20 54 105
E 20 55 103
E 20 56 102
E 20 57 92
E 20 58 105
E 20 59 106
E 20 60 99
E 20 61 105
E 20 62 106
E 20 63 103
E 20 64 104
E 20 65 103
E 20 66 94
E 20 67 105
E 20 68 96
E 20 69 100
E 20 70 92
E 20 71 98
E 20 72 96
E 20 73 102
E 20 74 98
E 20 75 87
E 20 76 101
E 20 77 98
E 20 78 93
E 20 79 95
E 20 80 95
E 21 22 94
E 21 23 100
E 21 24 101
E 21 25 100
E 21 26 100
E 21 27 90
E 21 28 99
E 21 29 88
E 21 30 98
E 21 31 96
E 21 32 101
E 21 33 100
E 21 34 104
E 21 35 98
E 21 36 91
E 21 37 104
E 21 38 107
E 21 39 100
E 21 40 108
E 21 41 100
E 21 42 97
E 21 43 100
E 21 44 106
E 21 45 97
E 21 46 91
E 21 47 98
E 21 48 98
E 21 49 103
E 21 50 108
E 21 51 93
E 21 52 94
E 21 53 102
E 21 54 100
E 21 55 107
E 21 56 104
E 21 57 95
E 21 58 100
E 21 59 92
E 21 60 100
E 21 61 99
E 21 62 104
E 21 63 110
E 21 64 99
E 21 65 102
E 21 66 94
E 21 67 95
E 21 68 91
E 21 69 96
E 21 70 96
E 21 71 99
E 21 72 100
E 21 73 96
E 21 74 94
E 21 75 104
E 21 76 103
E 21 77 99
E 21 78 93
E 21 79 101
E 21 80 109
E 22 23 104
E 22 24 96
E 22 25 94
E 22 26 100
E 22 27 107
E 22 28 105
E 22 29 98
E 22 30 97
E 22 31 96
E 22 32 98
E 22 33 100
E 22 34 107
E 22 35 98
E 22 36 114
E 22 37 106
E 22 38 96
E 22 39 102
E 22 40 96
E 22 41 96
E 22 42 101
E 22 43 102
E 22 44 105
E 22 45 94
E 22 46 102
E 22 47 99
E 22 48 100
E 22 49 98
E 22 50 100
E 22 51 100
E 22 52 95
E 22 53 99
E 22 54 97
E 22 55 93
E 22 56 104
E 22 57 103
E 22 58 100
E 22 59 92
E 22 60 98
E 22 61 96
E 22 62 106
E 22 63 108
E 22 64 94
E 22 65 95
E 22 66 96
E 22 67 101
E 22 68 105
E 22 69 94
E 22 70 96
E 22 71 106
E 22 72 103
E 22 73 107
E 22 74 107
E 22 75 96
E 22 76 111
E 22 77 113
E 22 78 106
E 22 79 97
E 22 80 97
E 23 24 94
E 23 25 107
E 23 26 100
E 23 27 106
E 23 28 100
E 23 29 90
E 23 30 103
E 23 31 103
E 23 32 96
E 23 33 88
E 23 34 96
E 23 35 86
E 23 36 104
E 23 37 94
E 23 38 101
E 23 39 96
E 23 40 101
E 23 41 101
E 23 42 96
E 23 43 101
E 23 44 98
E 23 45 99
E 23 46 100
E 23 47 107
E 23 48 93
E 23 49 94
E 23 50 98
E 23 51 98
E 23 52 94
E 23 53 90
E 23 54 102
E 23 55 91
E 23 56 102
E 23 57 107
E 23 58 105
E 23 59 101
E 23 60 102
E 23 61 94
E 23 62 101
E 23 63 102
E 23 64 105
E 23 65 106
E 23 66 104
E 23 67 95
E 23 68 100
E 23 69 101
E 23 70 95
E 23 71 102
E 23 72 104
E 23 73 95
E 23 74 100
E 23 75 98
E 23 76 101
E 23 77 100
E 23 78 97
E 23 79 95
E 23 80 109
E 24 25 101
E 24 26 96
E 24 27 95
E 24 28 97
E 24 29 101
E 24 30 87
E 24 31 96
E 24 32 104
E 24 33 100
E 24 34 102
E 24 35 98
E 24 36 93
E 24 37 105
E 24 38 102
E 24 39 93
E 24 40 102
E 24 41 105
E 24 42 99
E 24 43 98
E 24 44 102
E 24 45 94
E 24 46 105
E 24 47 98
E 24 48 104
E 24 49 105
E 24 50 101
E 24 51 94
E 24 52 98
E 24 53 96
E 24 54 98
E 24 55 97
E 24 56 107
E 24 57 99
E 24 58 92
E 24 59 107
E 24 60 97
E 24 61 98
E 24 62 93
E 24 63 105
E 24 64 98
E 24 65 101
E 24 66 103
E 24 67 102
E 24 68 102
E 24 69 97
E 24 70 99
E 24 71 89
E 24 72 92
E 24 73 99
E 24 74 97
E 24 75 97
E 24 76 104
E 24 77 105
E 24 78 94
E 24 79 88
E 24 80 94
E 25 26 101
E 25 27 96
E 25 28 98
E 25 29 97
E 25 30 101
E 25 31 95
E 25 32 98
E 25 33 96
E 25 34 92
E 25 35 86
E 25 36 95
E 25 37 96
E 25 38 101
E 25 39 101
E 25 40 101
E 25 41 101
E 25 42 102
E 25 43 100
E 25 44 100
E 25 45 96
E 25 46 97
E 25 47 102
E 25 48 97
E 25 49 109
E 25 50 105
E 25 51 97
E 25 52 109
E 25 53 110
E 25 54 86
E 25 55 90
E 25 56 94
E 25 57 95
E 25 58 106
E 25 59 90
E 25 60 97
E 25 61 105
E 25 62 104
E 25 63 91
E 25 64 92
E 25 65 93
E 25 66 99
E 25 67 102
E 25 68 100
E 25 69 100
E 25 70 94
E 25 71 113
E 25 72 105
E 25 73 101
E 25 74 96
E 25 75 92
E 25 76 95
E 25 77 100
E 25 78 96
E 25 79 102
E 25 80 101
E 26 27 101
E 26 28 107
E 26 29 99
E 26 30 103
E 26 31 96
E 26 32 100
E 26 33 103
E 26 34 92
E 26 35 97
E 26 36 104
E 26 37 88
E 26 38 97
E 26 39 93
E 26 40 109
E 26 41 94
E 26 42 96
E 26 43 98
E 26 44 99
E 26 45 97
E 26 46 99
E 26 47 94
E 26 48 104
E 26 49 92
E 26 50 99
E 26 51 98
E 26 52 99
E 26 53 98
E 26 54 102
E 26 55 92
E 26 56 89
E 26 57 95
E 26 58 109
E 26 59 99
E 26 60 97
E 26 61 108
E 26 62 100
E 26 63 101
E 26 64 106
E 26 65 105
E 26 66 98
E 26 67 108
E 26 68 98
E 26 69 99
E 26 70 101
E 26 71 105
E 26 72 99
E 26 73 103
E 26 74 99
E 26 75 99
E 26 76 101
E 26 77 100
E 26 78 101
E 26 79 100
E 26 80 98
E 27 28 98
E 27 29 104
E 27 30 108
E 27 31 102
E 27 32 107
E 27 33 103
E 27 34 105
E 27 35 96
E 27 36 103
E 27 37 102
E 27 38 97
E 27 39 100
E 27 40 100
E 27 41 97
E 27 42 96
E 27 43 112
E 27 44 97
E 27 45 106
E 27 46 112
E 27 47 104
E 27 48 115
E 27 49 105
E 27 50 100
E 27 51 104
E 27 52 91
E 27 53 95
E 27 54 97
E 27 55 106
E 27 56 95
E 27 57 99
E 27 58 92
E 27 59 102
E 27 60 102
E 27 61 101
E 27 62 105
E 27 63 104
E 27 64 100
E 27 65 98
E 27 66 94
E 27 67 100
E 27 68 105
E 27 69 96
E 27 70 103
E 27 71 98
E 27 72 105
E 27 73 95
E 27 74 105
E 27 75 99
E 27 76 98
E 27 77 98
E 27 78 102
E 27 79 87
E 27 80 103
E 28 29 97
E 28 30 99
E 28 31 99
E 28 32 106
E 28 33 105
E 28 34 97
E 28 35 108
E 28 36 91
E 28 37 106
E 28 38 102
E 28 39 99
E 28 40 101
E 28 41 103
E 28 42 105
E 28 43 105
E 28 44 107
E 28 45 98
E 28 46 90
E 28 47 111
E 28 48 112
E 28 49 104
E 28 50 100
E 28 51 97
E 28 52 100
E 28 53 95
E 28 54 100
E 28 55 92
E 28 56 99
E 28 57 93
E 28 58 100
E 28 59 102
E 28 60 101
E 28 61 89
E 28 62 99
E 28 63 102
E 28 64 94
E 28 65 92
E 28 66 90
E 28 67 98
E 28 68 95
E 28 69 102
E 28 70 102
E 28 71 102
E 28 72 98
E 28 73 92
E 28 74 92
E 28 75 95
E 28 76 103
E 28 77 103
E 28 78 106
E 28 79 102
E 28 80 102
E 29 30 106
E 29 31 101
E 29 32 90
E 29 33 94
E 29 34 102
E 29 35 103
E 29 36 99
E 29 37 98
E 29 38 96
E 29 39 97
E 29 40 99
E 29 41 94
E 29 42 100
E 29 43 98
E 29 44 101
E 29 45 93
E 29 46 100
E 29 47 90
E 29 48 96
E 29 49 99
E 29 50 93
E 29 51 99
E 29 52 92
E 29 53 101
E 29 54 100
E 29 55 107
E 29 56 99
E 29 57 101
E 29 58 96
E 29 59 98
E 29 60 99
E 29 61 105
E 29 62 108
E 29 63 101
E 29 64 95
E 29 65 102
E 29 66 100
E 29 67 89
E 29 68 104
E 29 69 92
E 29 70 99
E 29 71 100
E 29 72 94
E 29 73 105
E 29 74 104
E 29 75 100
E 29 76 111
E 29 77 102
E 29 78 106
E 29 79 104
E 29 80 113
E 30 31 96
E 30 32 92
E 30 33 101
E 30 34 101
E 30 35 98
E 30 36 108
E 30 37 95
E 30 38 106
E 30 39 105
E 30 40 103
E 30 41 102
E 30 42 98
E 30 43 99
E 30 44 102
E 30 45 92
E 30 46 97
E 30 47 102
E 30 48 93
E 30 49 106
E 30 50 96
E 30 51 95
E 30 52 102
E 30 53 88
E 30 54 109
E 30 55 105
E 30 56 99
E 30 57 96
E 30 58 95
E 30 59 107
E 30 60 99
E 30 61 107
E 30 62 99
E 30 63 104
E 30 64 98
E 30 65 106
E 30 66 103
E 30 67 103
E 30 68 103
E 30 69 104
E 30 70 111
E 30 71 94
E 30 72 106
E 30 73 109
E 30 74 103
E 30 75 99
E 30 76 93
E 30 77 106
E 30 78 100
E 30 79 95
E 30 80 106
E 31 32 99
E 31 33 93
E 31 34 96
E 31 35 101
E 31 36 99
E 31 37 99
E 31 38 97
E 31 39 99
E 31 40 99
E 31 41 93
E 31 42 102
E 31 43 103
E 31 44 103
E 31 45 101
E 31 46 95
E 31 47 96
E 31 48 95
E 31 49 106
E 31 50 88
E 31 51 90
E 31 52 107
E 31 53 97
E 31 54 100
E 31 55 93
E 31 56 87
E 31 57 96
E 31 58 96
E 31 59 107
E 31 60 102
E 31 61 94
E 31 62 96
E 31 63 95
E 31 64 97
E 31 65 104
E 31 66 108
E 31 67 95
E 31 68 101
E 31 69 99
E 31 70 94
E 31 71 100
E 31 72 90
E 31 73 99
E 31 74 102
E 31 75 90
E 31 76 111
E 31 77 101
E 31 78 103
E 31 79 106
E 31 80 100
E 32 33 99
E 32 34 104
E 32 35 100
E 32 36 109
E 32 37 99
E 32 38 105
E 32 39 102
E 32 40 105
E 32 41 101
E 32 42 97
E 32 43 108
E 32 44 97
E 32 45 98
E 32 46 93
E 32 47 94
E 32 48 102
E 32 49 105
E 32 50 91
E 32 51 100
E 32 52 99
E 32 53 93
E 32 54 98
E 32 55 106
E 32 56 97
E 32 57 100
E 32 58 97
E 32 59 96
E 32 60 107
E 32 61 103
E 32 62 104
E 32 63 95
E 32 64 99
E 32 65 106
E 32 66 90
E 32 67 97
E 32 68 100
E 32 69 102
E 32 70 104
E 32 71 97
E 32 72 89
E 32 73 94
E 32 74 96
E 32 75 99
E 32 76 94
E 32 77 86
E 32 78 98
E 32 79 99
E 32 80 107
E 33 34 99
E 33 35 102
E 33 36 101
E 33 37 95
E 33 38 101
E 33 39 108
E 33 40 99
E 33 41 94
E 33 42 106
E 33 43 98
E 33 44 106
E 33 45 96
E 33 46 99
E 33 47 99
E 33 48 99
E 33 49 99
E 33 50 102
E 33 51 102
E 33 52 105
E 33 53 101
E 33 54 99
E 33 55 90
E 33 56 94
E 33 57 92
E 33 58 105
E 33 59 102
E 33 60 104
E 33 61 94
E 33 62 96
E 33 63 101
E 33 64 100
E 33 65 95
E 33 66 104
E 33 67 100
E 33 68 94
E 33 69 105
E 33 70 97
E 33 71 100
E 33 72 102
E 33 73 98
E 33 74 102
E 33 75 102
E 33 76 103
E 33 77 102
E 33 78 98
E 33 79 98
E 33 80 103
E 34 35 102
E 34 36 104
E 34 37 99
E 34 38 93
E 34 39 95
E 34 40 99
E 34 41 95
E 34 42 101
E 34 43 101
E 34 44 101
E 34 45 103
E 34 46 100
E 34 47 103
E 34 48 104
E 34 49 95
E 34 50 94
E 34 51 97
E 34 52 97
E 34 53 101
E 34 54 102
E 34 55 97
E 34 56 89
E 34 57 101
E 34 58 108
E 34 59 95
E 34 60 92
E 34 61 97
E 34 62 94
E 34 63 101
E 34 64 99
E 34 65 98
E 34 66 113
E 34 67 105
E 34 68 98
E 34 69 99
E 34 70 99
E 34 71 95
E 34 72 102
E 34 73 96
E 34 74 96
E 34 75 100
E 34 76 100
E 34 77 100
E 34 78 104
E 34 79 93
E 34 80 101
E 35 36 100
E 35 37 101
E 35 38 100
E 35 39 90
E 35 40 91
E 35 41 100
E 35 42 110
E 35 43 107
E 35 44 104
E 35 45 93
E 35 46 103
E 35 47 105
E 35 48 95
E 35 49 99
E 35 50 95
E 35 51 103
E 35 52 98
E 35 53 98
E 35 54 100
E 35 55 98
E 35 56 95
E 35 57 97
E 35 58 107
E 35 59 96
E 35 60 94
E 35 61 87
E 35 62 100
E 35 63 98
E 35 64 101
E 35 65 106
E 35 66 102
E 35 67 100
E 35 68 96
E 35 69 92
E 35 70 91
E 35 71 91
E 35 72 97
E 35 73 92
E 35 74 105
E 35 75 88
E 35 76 107
E 35 77 106
E 35 78 98
E 35 79 97
E 35 80 93
E 36 37 99
E 36 38 99
E 36 39 102
E 36 40 107
E 36 41 102
E 36 42 105
E 36 43 100
E 36 44 99
E 36 45 103
E 36 46 100
E 36 47 103
E 36 48 104
E 36 49 99
E 36 50 105
E 36 51 100
E 36 52 98
E 36 53 90
E 36 54 98
E 36 55 95
E 36 56 102
E 36 57 97
E 36 58 100
E 36 59 103
E 36 60 104
E 36 61 102
E 36 62 101
E 36 63 93
E 36 64 106
E 36 65 100
E 36 66 98
E 36 67 94
E 36 68 91
E 36 69 95
E 36 70 101
E 36 71 93
E 36 72 94
E 36 73 101
E 36 74 101
E 36 75 91
E 36 76 100
E 36 77 105
E 36 78 97
E 36 79 101
E 36 80 111
E 37 38 90
E 37 39 105
E 37 40 97
E 37 41 99
E 37 42 101
E 37 43 106
E 37 44 101
E 37 45 100
E 37 46 102
E 37 47 104
E 37 48 107
E 37 49 98
E 37 50 101
E 37 51 99
E 37 52 98
E 37 53 106
E 37 54 95
E 37 55 100
E 37 56 94
E 37 57 101
E 37 58 105
E 37 59 96
E 37 60 99
E 37 61 99
E 37 62 104
E 37 63 102
E 37 64 96
E 37 65 99
E 37 66 91
E 37 67 95
E 37 68 99
E 37 69 107
E 37 70 102
E 37 71 109
E 37 72 100
E 37 73 94
E 37 74 98
E 37 75 98
E 37 76 106
E 37 77 93
E 37 78 92
E 37 79 93
E 37 80 100
E 38 39 102
E 38 40 97
E 38 41 98
E 38 42 108
E 38 43 104
E 38 44 93
E 38 45 97
E 38 46 94
E 38 47 101
E 38 48 99
E 38 49 99
E 38 50 102
E 38 51 95
E 38 52 109
E 38 53 102
E 38 54 99
E 38 55 103
E 38 56 94
E 38 57 100
E 38 58 93
E 38 59 103
E 38 60 102
E 38 61 99
E 38 62 104
E 38 63 96
E 38 64 104
E 38 65 94
E 38 66 100
E 38 67 106
E 38 68 102
E 38 69 100
E 38 70 101
E 38 71 110
E 38 72 111
E 38 73 102
E 38 74 95
E 38 75 101
E 38 76 100
E 38 77 102
E 38 78 100
E 38 79 94
E 38 80 102
E 39 40 99
E 39 41 96
E 39 42 101
E 39 43 99
E 39 44 98
E 39 45 98
E 39 46 100
E 39 47 96
E 39 48 103
E 39 49 101
E 39 50 99
E 39 51 107
E 39 52 99
E 39 53 96
E 39 54 99
E 39 55 96
E 39 56 100
E 39 57 100
E 39 58 99
E 39 59 107
E 39 60 106
E 39 61 94
E 39 62 97
E 39 63 97
E 39 64 102
E 39 65 107
E 39 66 96
E 39 67 89
E 39 68 94
E 39 69 95
E 39 70 99
E 39 71 96
E 39 72 99
E 39 73 103
E 39 74 109
E 39 75 99
E 39 76 96
E 39 77 101
E 39 78 106
E 39 79 101
E 39 80 101
E 40 41 100
E 40 42 109
E 40 43 96
E 40 44 100
E 40 45 99
E 40 46 91
E 40 47 102
E 40 48 94
E 40 49 102
E 40 50 97
E 40 51 93
E 40 52 106
E 40 53 102
E 40 54 104
E 40 55 107
E 40 56 101
E 40 57 101
E 40 58 102
E 40 59 100
E 40 60 103
E 40 61 95
E 40 62 93
E 40 63 108
E 40 64 100
E 40 65 101
E 40 66 95
E 40 67 100
E 40 68 93
E 40 69 94
E 40 70 98
E 40 71 93
E 40 72 106
E 40 73 113
E 40 74 105
E 40 75 96
E 40 76 102
E 40 77 107
E 40 78 103
E 40 79 101
E 40 80 102
E 41 42 102
E 41 43 94
E 41 44 97
E 41 45 85
E 41 46 106
E 41 47 100
E 41 48 96
E 41 49 92
E 41 50 96
E 41 51 107
E 41 52 110
E 41 53 103
E 41 54 92
E 41 55 104
E 41 56 103
E 41 57 96
E 41 58 92
E 41 59 108
E 41 60 108
E 41 61 98
E 41 62 91
E 41 63 99
E 41 64 100
E 41 65 102
E 41 66 100
E 41 67 92
E 41 68 101
E 41 69 100
E 41 70 100
E 41 71 99
E 41 72 103
E 41 73 99
E 41 74 95
E 41 75 110
E 41 76 101
E 41 77 98
E 41 78 95
E 41 79 91
E 41 80 96
E 42 43 102
E 42 44 95
E 42 45 103
E 42 46 104
E 42 47 100
E 42 48 96
E 42 49 104
E 42 50 94
E 42 51 95
E 42 52 102
E 42 53 112
E 42 54 102
E 42 55 103
E 42 56 105
E 42 57 100
E 42 58 98
E 42 59 97
E 42 60 102
E 42 61 105
E 42 62 94
E 42 63 103
E 42 64 94
E 42 65 99
E 42 66 105
E 42 67 104
E 42 68 95
E 42 69 90
E 42 70 105
E 42 71 101
E 42 72 100
E 42 73 101
E 42 74 93
E 42 75 98
E 42 76 99
E 42 77 94
E 42 78 88
E 42 79 102
E 42 80 104
E 43 44 96
E 43 45 94
E 43 46 99
E 43 47 107
E 43 48 98
E 43 49 99
E 43 50 97
E 43 51 100
E 43 52 99
E 43 53 102
E 43 54 106
E 43 55 94
E 43 56 104
E 43 57 101
E 43 58 100
E 43 59 104
E 43 60 96
E 43 61 98
E 43 62 98
E 43 63 99
E 43 64 108
E 43 65 99
E 43 66 96
E 43 67 98
E 43 68 100
E 43 69 100
E 43 70 96
E 43 71 93
E 43 72 90
E 43 73 105
E 43 74 97
E 43 75 97
E 43 76 98
E 43 77 94
E 43 78 96
E 43 79 102
E 43 80 106
E 44 45 92
E 44 46 99
E 44 47 93
E 44 48 105
E 44 49 98
E 44 50 98
E 44 51 97
E 44 52 102
E 44 53 100
E 44 54 93
E 44 55 91
E 44 56 95
E 44 57 94
E 44 58 100
E 44 59 90
E 44 60 94
E 44 61 100
E 44 62 106
E 44 63 99
E 44 64 104
E 44 65 95
E 44 66 100
E 44 67 89
E 44 68 101
E 44 69 94
E 44 70 96
E 44 71 116
E 44 72 94
E 44 73 100
E 44 74 91
E 44 75 96
E 44 76 98
E 44 77 106
E 44 78 103
E 44 79 90
E 44 80 94
E 45 46 92
E 45 47 100
E 45 48 100
E 45 49 99
E 45 50 94
E 45 51 97
E 45 52 97
E 45 53 104
E 45 54 100
E 45 55 97
E 45 56 104
E 45 57 101
E 45 58 100
E 45 59 101
E 45 60 99
E 45 61 94
E 45 62 95
E 45 63 98
E 45 64 106
E 45 65 100
E 45 66 97
E 45 67 97
E 45 68 98
E 45 69 102
E 45 70 97
E 45 71 97
E 45 72 96
E 45 73 113
E 45 74 93
E 45 75 104
E 45 76 107
E 45 77 105
E 45 78 102
E 45 79 107
E 45 80 80
E 46 47 98
E 46 48 96
E 46 49 93
E 46 50 99
E 46 51 99
E 46 52 99
E 46 53 95
E 46 54 102
E 46 55 100
E 46 56 101
E 46 57 97
E 46 58 98
E 46 59 92
E 46 60 102
E 46 61 97
E 46 62 95
E 46 63 104
E 46 64 100
E 46 65 103
E 46 66 109
E 46 67 106
E 46 68 99
E 46 69 105
E 46 70 111
E 46 71 90
E 46 72 97
E 46 73 108
E 46 74 112
E 46 75 91
E 46 76 103
E 46 77 94
E 46 78 109
E 46 79 96
E 46 80 103
E 47 48 94
E 47 49 90
E 47 50 98
E 47 51 96
E 47 52 102
E 47 53 98
E 47 54 103
E 47 55 111
E 47 56 101
E 47 57 102
E 47 58 99
E 47 59 101
E 47 60 102
E 47 61 92
E 47 62 101
E 47 63 96
E 47 64 92
E 47 65 99
E 47 66 92
E 47 67 89
E 47 68 103
E 47 69 91
E 47 70 99
E 47 71 107
E 47 72 102
E 47 73 103
E 47 74 99
E 47 75 106
E 47 76 100
E 47 77 98
E 47 78 99
E 47 79 109
E 47 80 102
E 48 49 113
E 48 50 101
E 48 51 100
E 48 52 104
E 48 53 102
E 48 54 111
E 48 55 105
E 48 56 100
E 48 57 99
E 48 58 108
E 48 59 115
E 48 60 109
E 48 61 109
E 48 62 94
E 48 63 95
E 48 64 103
E 48 65 95
E 48 66 102
E 48 67 98
E 48 68 112
E 48 69 97
E 48 70 103
E 48 71 101
E 48 72 92
E 48 73 101
E 48 74 99
E 48 75 94
E 48 76 101
E 48 77 104
E 48 78 95
E 48 79 99
E 48 80 86
E 49 50 99
E 49 51 102
E 49 52 102
E 49 53 106
E 49 54 97
E 49 55 103
E 49 56 97
E 49 57 101
E 49 58 96
E 49 59 104
E 49 60 95
E 49 61 100
E 49 62 97
E 49 63 111
E 49 64 103
E 49 65 96
E 49 66 104
E 49 67 102
E 49 68 95
E 49 69 102
E 49 70 105
E 49 71 94
E 49 72 103
E 49 73 99
E 49 74 97
E 49 75 106
E 49 76 108
E 49 77 96
E 49 78 101
E 49 79 99
E 49 80 107
E 50 51 99
E 50 52 95
E 50 53 102
E 50 54 107
E 50 55 98
E 50 56 99
E 50 57 99
E 50 58 109
E 50 59 95
E 50 60 99
E 50 61 97
E 50 62 95
E 50 63 92
E 50 64 98
E 50 65 93
E 50 66 92
E 50 67 104
E 50 68 95
E 50 69 107
E 50 70 103
E 50 71 98
E 50 72 92
E 50 73 103
E 50 74 102
E 50 75 106
E 50 76 96
E 50 77 93
E 50 78 100
E 50 79 88
E 50 80 92
E 51 52 105
E 51 53 104
E 51 54 93
E 51 55 99
E 51 56 93
E 51 57 100
E 51 58 108
E 51 59 99
E 51 60 97
E 51 61 104
E 51 62 100
E 51 63 93
E 51 64 102
E 51 65 106
E 51 66 107
E 51 67 101
E 51 68 97
E 51 69 102
E 51 70 107
E 51 71 90
E 51 72 102
E 51 73 92
E 51 74 95
E 51 75 101
E 51 76 101
E 51 77 101
E 51 78 96
E 51 79 99
E 51 80 97
E 52 53 102
E 52 54 103
E 52 55 101
E 52 56 97
E 52 57 94
E 52 58 92
E 52 59 93
E 52 60 100
E 52 61 98
E 52 62 103
E 52 63 98
E 52 64 98
E 52 65 97
E 52 66 101
E 52 67 104
E 52 68 97
E 52 69 98
E 52 70 93
E 52 71 100
E 52 72 89
E 52 73 107
E 52 74 98
E 52 75 100
E 52 76 101
E 52 77 94
E 52 78 94
E 52 79 101
E 52 80 96
E 53 54 104
E 53 55 98
E 53 56 108
E 53 57 101
E 53 58 88
E 53 59 104
E 53 60 89
E 53 61 98
E 53 62 116
E 53 63 99
E 53 64 91
E 53 65 103
E 53 66 96
E 53 67 96
E 53 68 110
E 53 69 94
E 53 70 102
E 53 71 103
E 53 72 100
E 53 73 110
E 53 74 99
E 53 75 90
E 53 76 99
E 53 77 102
E 53 78 99
E 53 79 108
E 53 80 107
E 54 55 106
E 54 56 103
E 54 57 89
E 54 58 100
E 54 59 100
E 54 60 99
E 54 61 101
E 54 62 105
E 54 63 105
E 54 64 97
E 54 65 98
E 54 66 97
E 54 67 95
E 54 68 92
E 54 69 97
E 54 70 96
E 54 71 104
E 54 72 98
E 54 73 101
E 54 74 101
E 54 75 87
E 54 76 100
E 54 77 104
E 54 78 97
E 54 79 105
E 54 80 102
E 55 56 101
E 55 57 93
E 55 58 103
E 55 59 102
E 55 60 106
E 55 61 106
E 55 62 102
E 55 63 93
E 55 64 100
E 55 65 93
E 55 66 99
E 55 67 98
E 55 68 98
E 55 69 98
E 55 70 94
E 55 71 105
E 55 72 93
E 55 73 105
E 55 74 94
E 55 75 105
E 55 76 103
E 55 77 100
E 55 78 106
E 55 79 98
E 55 80 109
E 56 57 100
E 56 58 85
E 56 59 99
E 56 60 93
E 56 61 100
E 56 62 106
E 56 63 94
E 56 64 105
E 56 65 96
E 56 66 100
E 56 67 94
E 56 68 103
E 56 69 105
E 56 70 99
E 56 71 97
E 56 72 100
E 56 73 103
E 56 74 106
E 56 75 103
E 56 76 111
E 56 77 102
E 56 78 88
E 56 79 98
E 56 80 106
E 57 58 109
E 57 59 104
E 57 60 97
E 57 61 104
E 57 62 91
E 57 63 100
E 57 64 100
E 57 65 107
E 57 66 100
E 57 67 105
E 57 68 103
E 57 69 100
E 57 70 94
E 57 71 108
E 57 72 95
E 57 73 106
E 57 74 87
E 57 75 102
E 57 76 106
E 57 77 98
E 57 78 98
E 57 79 100
E 57 80 94
E 58 59 98
E 58 60 89
E 58 61 103
E 58 62 106
E 58 63 100
E 58 64 101
E 58 65 99
E 58 66 97
E 58 67 105
E 58 68 97
E 58 69 93
E 58 70 101
E 58 71 100
E 58 72 102
E 58 73 102
E 58 74 89
E 58 75 96
E 58 76 96
E 58 77 100
E 58 78 99
E 58 79 103
E 58 80 105
E 59 60 100
E 59 61 96
E 59 62 105
E 59 63 101
E 59 64 103
E 59 65 96
E 59 66 104
E 59 67 100
E 59 68 93
E 59 69 99
E 59 70 97
E 59 71 93
E 59 72 100
E 59 73 98
E 59 74 102
E 59 75 109
E 59 76 103
E 59 77 97
E 59 78 99
E 59 79 98
E 59 80 100
E 60 61 104
E 60 62 95
E 60 63 97
E 60 64 98
E 60 65 97
E 60 66 102
E 60 67 95
E 60 68 106
E 60 69 95
E 60 70 97
E 60 71 91
E 60 72 93
E 60 73 101
E 60 74 104
E 60 75 100
E 60 76 102
E 60 77 99
E 60 78 102
E 60 79 96
E 60 80 104
E 61 62 103
E 61 63 103
E 61 64 100
E 61 65 91
E 61 66 100
E 61 67 98
E 61 68 105
E 61 69 97
E 61 70 103
E 61 71 104
E 61 72 106
E 61 73 89
E 61 74 98
E 61 75 105
E 61 76 101
E 61 77 93
E 61 78 90
E 61 79 100
E 61 80 94
E 62 63 112
E 62 64 101
E 62 65 89
E 62 66 107
E 62 67 89
E 62 68 102
E 62 69 102
E 62 70 110
E 62 71 103
E 62 72 106
E 62 73 100
E 62 74 101
E 62 75 105
E 62 76 104
E 62 77 103
E 62 78 104
E 62 79 93
E 62 80 94
E 63 64 95
E 63 65 110
E 63 66 102
E 63 67 93
E 63 68 96
E 63 69 99
E 63 70 99
E 63 71 102
E 63 72 97
E 63 73 99
E 63 74 93
E 63 75 97
E 63 76 94
E 63 77 90
E 63 78 94
E 63 79 99
E 63 80 95
E 64 65 100
E 64 66 93
E 64 67 96
E 64 68 102
E 64 69 90
E 64 70 100
E 64 71 106
E 64 72 105
E 64 73 98
E 64 74 92
E 64 75 106
E 64 76 98
E 64 77 97
E 64 78 101
E 64 79 90
E 64 80 101
E 65 66 97
E 65 67 97
E 65 68 105
E 65 69 98
E 65 70 101
E 65 71 105
E 65 72 99
E 65 73 97
E 65 74 102
E 65 75 95
E 65 76 95
E 65 77 112
E 65 78 99
E 65 79 100
E 65 80 93
E 66 67 103
E 66 68 98
E 66 69 100
E 66 70 98
E 66 71 91
E 66 72 101
E 66 73 99
E 66 74 98
E 66 75 99
E 66 76 85
E 66 77 104
E 66 78 104
E 66 79 107
E 66 80 100
E 67 68 94
E 67 69 99
E 67 70 108
E 67 71 93
E 67 72 104
E 67 73 97
E 67 74 104
E 67 75 100
E 67 76 107
E 67 77 100
E 67 78 102
E 67 79 104
E 67 80 96
E 68 69 99
E 68 70 98
E 68 71 95
E 68 72 96
E 68 73 97
E 68 74 95
E 68 75 110
E 68 76 101
E 68 77 112
E 68 78 90
E 68 79 98
E 68 80 109
E 69 70 91
E 69 71 107
E 69 72 115
E 69 73 95
E 69 74 103
E 69 75 98
E 69 76 106
E 69 77 118
E 69 78 102
E 69 79 96
E 69 80 96
E 70 71 96
E 70 72 97
E 70 73 103
E 70 74 107
E 70 75 100
E 70 76 93
E 70 77 93
E 70 78 102
E 70 79 102
E 70 80 94
E 71 72 94
E 71 73 97
E 71 74 94
E 71 75 96
E 71 76 102
E 71 77 96
E 71 78 105
E 71 79 98
E 71 80 93
E 72 73 96
E 72 74 93
E 72 75 96
E 72 76 94
E 72 77 101
E 72 78 102
E 72 79 93
E 72 80 106
E 73 74 93
E 73 75 102
E 73 76 103
E 73 77 98
E 73 78 92
E 73 79 93
E 73 80 102
E 74 75 89
E 74 76 103
E 74 77 101
E 74 78 102
E 74 79 104
E 74 80 99
E 75 76 95
E 75 77 104
E 75 78 93
E 75 79 95
E 75 80 108
E 76 77 96
E 76 78 109
E 76 79 97
E 76 80 98
E 77 78 98
E 77 79 100
E 77 80 103
E 78 79 105
E 78 80 96
E 79 80 101
END

SECTION Terminals
Terminals 16
T 1
T 2
T 3
T 4
T 5
T 6
T 7
T 8
T 9
T 10
T 11
T 12
T 13
T 14
T 15
T 16
END

EOF
